code/experiments/eil51_sub/eil51_n20.tsp
NAME : eil51_n20
COMMENT : 20-city problem (Christofides/Eilon)
TYPE : TSP
DIMENSION : 20
EDGE_WEIGHT_TYPE : CEIL_2D
NODE_COORD_SECTION
1 20 26
2 17 63
3 31 32
4 5 25
5 36 16
6 27 23
7 13 13
8 57 58
9 62 42
10 27 68
11 43 67
12 46 10
13 61 33
14 32 22
15 10 17
16 5 64
17 30 15
18 39 10
19 32 39
20 30 40
EOF
