code/experiments/eil51_sub/eil51_n20.opt.tour
20
0 5 13 2 18 19 15 1 9 10 
7 8 12 11 17 4 16 6 14 3 
